graphs/queen5_5.col
p edge 25 160
e 1 2
e 1 3
e 1 4
e 1 5
e 1 6
e 1 7
e 1 11
e 1 13
e 1 16
e 1 19
e 1 21
e 1 25
e 2 3
e 2 4
e 2 5
e 2 6
e 2 7
e 2 8
e 2 12
e 2 14
e 2 17
e 2 20
e 2 22
e 3 4
e 3 5
e 3 7
e 3 8
e 3 9
e 3 11
e 3 13
e 3 15
e 3 18
e 3 23
e 4 5
e 4 8
e 4 9
e 4 10
e 4 12
e 4 14
e 4 16
e 4 19
e 4 24
e 5 9
e 5 10
e 5 13
e 5 15
e 5 17
e 5 20
e 5 21
e 5 25
e 6 7
e 6 8
e 6 9
e 6 10
e 6 11
e 6 12
e 6 16
e 6 18
e 6 21
e 6 24
e 7 8
e 7 9
e 7 10
e 7 11
e 7 12
e 7 13
e 7 17
e 7 19
e 7 22
e 7 25
e 8 9
e 8 10
e 8 12
e 8 13
e 8 14
e 8 16
e 8 18
e 8 20
e 8 23
e 9 10
e 9 13
e 9 14
e 9 15
e 9 17
e 9 19
e 9 21
e 9 24
e 10 14
e 10 15
e 10 18
e 10 20
e 10 22
e 10 25
e 11 12
e 11 13
e 11 14
e 11 15
e 11 16
e 11 17
e 11 21
e 11 23
e 12 13
e 12 14
e 12 15
e 12 16
e 12 17
e 12 18
e 12 22
e 12 24
e 13 14
e 13 15
e 13 17
e 13 18
e 13 19
e 13 21
e 13 23
e 13 25
e 14 15
e 14 18
e 14 19
e 14 20
e 14 22
e 14 24
e 15 19
e 15 20
e 15 23
e 15 25
e 16 17
e 16 18
e 16 19
e 16 20
e 16 21
e 16 22
e 17 18
e 17 19
e 17 20
e 17 21
e 17 22
e 17 23
e 18 19
e 18 20
e 18 22
e 18 23
e 18 24
e 19 20
e 19 23
e 19 24
e 19 25
e 20 24
e 20 25
e 21 22
e 21 23
e 21 24
e 21 25
e 22 23
e 22 24
e 22 25
e 23 24
e 23 25
e 24 25
