results/clicolcom_results/queen5_5.col.log
graphs/queen5_5.col
c found max clique of size 5
c found chromatic number: 5
time: 0
